
n_res = 4;
rcap = [33, 35, 252, 286];
rtype = [1, 1, 2, 2];
n_tasks = 50;
modes =  [{1, 2, 3}, {4, 5, 6}, {7, 8, 9}, {10, 11, 12}, {13, 14, 15}, {16, 17, 18}, {19, 20, 21}, {22, 23, 24}, {25, 26, 27}, {28, 29, 30}, {31, 32, 33}, {34, 35, 36}, {37, 38, 39}, {40, 41, 42}, {43, 44, 45}, {46, 47, 48}, {49, 50, 51}, {52, 53, 54}, {55, 56, 57}, {58, 59, 60}, {61, 62, 63}, {64, 65, 66}, {67, 68, 69}, {70, 71, 72}, {73, 74, 75}, {76, 77, 78}, {79, 80, 81}, {82, 83, 84}, {85, 86, 87}, {88, 89, 90}, {91, 92, 93}, {94, 95, 96}, {97, 98, 99}, {100, 101, 102}, {103, 104, 105}, {106, 107, 108}, {109, 110, 111}, {112, 113, 114}, {115, 116, 117}, {118, 119, 120}, {121, 122, 123}, {124, 125, 126}, {127, 128, 129}, {130, 131, 132}, {133, 134, 135}, {136, 137, 138}, {139, 140, 141}, {142, 143, 144}, {145, 146, 147}, {148, 149, 150}];
succ =  [{5, 3}, {10, 3}, {12, 11, 9}, {21, 13, 9}, {14, 13, 12}, {7}, {24, 21, 18, 14}, {24, 14, 12}, {24, 18, 14}, {24, 12}, {26, 24, 21, 20, 19, 16}, {21, 20, 17, 16}, {20, 15}, {20, 17, 16}, {26, 24, 19, 16}, {32, 28, 27, 25, 23}, {26, 23, 19}, {37, 33, 32, 29, 28}, {31, 22}, {37, 32, 25}, {22}, {44, 37, 36, 33, 32, 29}, {37, 36, 33, 31, 29}, {37, 36, 33, 31, 29}, {36, 33, 31, 30}, {39, 37, 35, 34, 31}, {42, 41, 39, 37, 35, 34}, {42, 36, 34, 31}, {35, 30}, {43, 42, 41, 39, 34}, {44, 43, 41, 38}, {46, 41, 35}, {38, 35}, {50, 46, 38}, {49, 43, 40}, {46, 40}, {50, 49, 47, 45}, {49, 40}, {46, 45}, {47, 45}, {47, 45}, {47, 46}, {50, 47}, {48, 47}, {48}, {49}, {}, {}, {}, {}];
n_opt = 150;
dur = [3, 4, 9, 1, 6, 9, 2, 3, 9, 1, 5, 9, 1, 7, 10, 3, 8, 9, 4, 5, 8, 1, 2, 9, 6, 8, 10, 6, 7, 10, 4, 7, 9, 4, 5, 10, 5, 6, 7, 2, 8, 9, 1, 4, 5, 1, 2, 3, 4, 6, 10, 1, 4, 5, 5, 6, 7, 1, 4, 6, 5, 7, 9, 6, 7, 10, 2, 3, 10, 7, 8, 9, 1, 3, 7, 2, 5, 6, 2, 4, 6, 2, 8, 9, 2, 4, 10, 1, 2, 6, 4, 5, 9, 2, 6, 8, 2, 3, 10, 5, 7, 10, 3, 4, 5, 3, 6, 8, 5, 8, 9, 1, 2, 3, 6, 7, 9, 5, 8, 9, 2, 4, 5, 3, 5, 9, 3, 6, 7, 2, 5, 6, 3, 5, 8, 1, 2, 7, 2, 3, 8, 1, 2, 6, 4, 6, 7, 4, 7, 10];
rreq = [|10, 10, 10, 8, 7, 6, 10, 5, 2, 7, 5, 4, 8, 8, 6, 8, 8, 8, 7, 5, 3, 8, 7, 6, 10, 10, 10, 7, 6, 6, 5, 3, 1, 8, 5, 3, 9, 5, 3, 9, 9, 9, 8, 8, 8, 7, 6, 3, 1, 1, 1, 9, 9, 9, 4, 4, 3, 5, 5, 3, 10, 7, 4, 6, 4, 2, 6, 4, 4, 10, 7, 4, 10, 8, 8, 10, 9, 9, 3, 1, 1, 7, 3, 2, 5, 3, 1, 5, 3, 2, 2, 1, 1, 6, 5, 5, 6, 5, 4, 8, 8, 7, 6, 4, 2, 7, 5, 2, 5, 5, 2, 7, 4, 3, 6, 5, 4, 7, 7, 5, 8, 4, 1, 7, 4, 2, 4, 3, 2, 7, 6, 3, 7, 7, 1, 3, 3, 1, 4, 2, 2, 2, 2, 2, 8, 8, 8, 4, 2, 1
 |8, 3, 1, 7, 7, 7, 7, 3, 1, 6, 2, 1, 9, 5, 5, 6, 3, 1, 2, 2, 2, 6, 5, 5, 8, 7, 7, 8, 5, 1, 10, 7, 6, 9, 8, 8, 10, 5, 3, 6, 3, 3, 3, 3, 1, 6, 5, 5, 2, 2, 2, 7, 4, 3, 9, 5, 3, 9, 8, 4, 4, 4, 4, 10, 7, 6, 6, 4, 4, 7, 7, 7, 2, 2, 2, 9, 9, 9, 7, 4, 4, 8, 7, 6, 10, 6, 2, 3, 2, 2, 6, 6, 2, 8, 7, 7, 8, 5, 3, 8, 6, 6, 4, 2, 1, 2, 1, 1, 9, 4, 4, 7, 6, 6, 3, 3, 3, 7, 5, 3, 6, 2, 1, 8, 5, 3, 8, 8, 6, 7, 7, 6, 7, 7, 7, 10, 4, 3, 4, 2, 2, 6, 6, 6, 9, 8, 7, 6, 4, 3
 |4, 3, 2, 8, 6, 3, 9, 7, 3, 8, 7, 6, 8, 5, 4, 8, 7, 7, 6, 4, 2, 9, 8, 7, 8, 7, 6, 7, 4, 3, 7, 5, 5, 9, 6, 4, 9, 8, 8, 3, 2, 2, 2, 2, 2, 7, 5, 3, 1, 1, 1, 8, 8, 6, 9, 5, 3, 10, 10, 10, 4, 3, 3, 1, 1, 1, 2, 2, 2, 10, 7, 4, 6, 5, 5, 9, 7, 6, 9, 8, 5, 7, 3, 3, 8, 3, 2, 4, 3, 3, 8, 6, 4, 10, 8, 6, 9, 7, 6, 6, 5, 5, 8, 8, 8, 5, 5, 4, 4, 3, 3, 6, 6, 6, 9, 8, 8, 8, 5, 4, 4, 2, 1, 7, 6, 6, 8, 4, 2, 5, 5, 3, 6, 5, 5, 9, 9, 9, 6, 4, 3, 7, 7, 7, 8, 7, 7, 9, 5, 5
 |7, 5, 2, 8, 4, 2, 8, 8, 5, 9, 6, 3, 8, 4, 4, 8, 8, 7, 1, 1, 1, 10, 10, 10, 4, 3, 1, 8, 7, 6, 10, 8, 7, 7, 6, 3, 6, 3, 3, 10, 9, 8, 7, 6, 7, 7, 5, 3, 10, 9, 8, 9, 5, 5, 7, 7, 5, 3, 3, 3, 9, 9, 8, 5, 3, 1, 5, 5, 4, 9, 8, 5, 9, 8, 6, 3, 3, 2, 7, 6, 6, 8, 7, 5, 10, 9, 9, 4, 4, 4, 9, 7, 7, 8, 8, 7, 9, 9, 9, 9, 8, 8, 9, 8, 8, 10, 9, 8, 5, 3, 3, 6, 6, 6, 4, 4, 4, 9, 6, 5, 4, 4, 4, 9, 8, 6, 8, 6, 5, 7, 7, 7, 8, 7, 7, 8, 8, 8, 5, 5, 1, 7, 3, 2, 7, 7, 7, 5, 4, 4|];